benchmarks/bfuzz0/2799126972293922858632516394921342.smt2
(set-logic QF_FP)
(declare-const x0 (_ FloatingPoint 8 24))
(declare-const x1 (_ FloatingPoint 8 24))
(declare-const x2 (_ FloatingPoint 8 24))
(declare-const x3 (_ FloatingPoint 8 24))
(declare-const x4 (_ FloatingPoint 8 24))
(declare-const x5 (_ FloatingPoint 8 24))
(declare-const x6 (_ FloatingPoint 8 24))
(declare-const x7 (_ FloatingPoint 8 24))
(assert (fp.leq (fp.sub RNE x2 x6) (fp.mul RNE x6 x0)))
(assert (fp.geq (fp.sub RNE x7 x5) (fp.add RNE x0 x7)))
(assert (fp.lt (fp.mul RNE x4 x3) (fp.div RNE x1 x2)))
(assert (fp.lt (fp.mul RNE x3 x4) (fp.div RNE x3 x5)))
(assert (fp.leq (fp.sub RNE x3 x4) (fp.mul RNE x1 x6)))
(assert (fp.lt (fp.neg x1) (fp.neg x1)))
(assert (fp.lt (fp.add RNE x2 x4) (fp.sub RNE x6 x0)))
(assert (fp.gt (fp.add RNE x3 x1) (fp.add RNE x3 x1)))
(assert (fp.lt (fp.add RNE x7 x2) (fp.div RNE x7 x2)))
(assert (fp.eq (fp.add RNE x4 x7) (fp.sub RNE x4 x2)))
(assert (fp.geq (fp.mul RNE x7 x0) (fp.div RNE x0 x5)))
(assert (fp.lt (fp.sub RNE x2 x5) (fp.sub RNE x0 x2)))
(assert (fp.lt (fp.add RNE x4 x6) (fp.mul RNE x6 x2)))
(assert (fp.lt (fp.sub RNE x5 x2) (fp.sub RNE x7 x7)))
(assert (fp.eq (fp.div RNE x6 x0) (fp.mul RNE x5 x0)))
(assert (fp.lt (fp.mul RNE x7 x3) (fp.add RNE x2 x4)))
(assert (fp.eq (fp.mul RNE x6 x3) (fp.sub RNE x5 x3)))
(check-sat)
