db/data/2799126972293922858632516394921342.z3.out
unsat
-------------------
.113603576
